p tw 121 18151 2 
1 3 
1 4 
1 5 
1 6 
1 7 
1 8 
1 9 
1 10 
1 11 
1 12 
1 14 
1 23 
1 29 
1 34 
1 37 
1 45 
1 54 
1 56 
1 64 
1 67 
1 74 
1 78 
1 88 
1 89 
1 93 
1 100 
1 105 
1 111 
1 112 
2 3 
2 4 
2 5 
2 6 
2 7 
2 8 
2 9 
2 10 
2 11 
2 13 
2 18 
2 24 
2 28 
2 34 
2 35 
2 46 
2 48 
2 57 
2 63 
2 68 
2 71 
2 79 
2 87 
2 90 
2 99 
2 101 
2 102 
2 112 
2 119 
3 4 
3 5 
3 6 
3 7 
3 8 
3 9 
3 10 
3 11 
3 14 
3 22 
3 24 
3 25 
3 36 
3 39 
3 47 
3 53 
3 58 
3 59 
3 69 
3 73 
3 80 
3 85 
3 89 
3 91 
3 102 
3 104 
3 113 
3 120 
4 5 
4 6 
4 7 
4 8 
4 9 
4 10 
4 11 
4 13 
4 15 
4 26 
4 30 
4 37 
4 42 
4 48 
4 55 
4 56 
4 59 
4 69 
4 70 
4 81 
4 82 
4 92 
4 95 
4 103 
4 109 
4 114 
4 116 
5 6 
5 7 
5 8 
5 9 
5 10 
5 11 
5 16 
5 21 
5 26 
5 27 
5 38 
5 44 
5 49 
5 51 
5 60 
5 61 
5 68 
5 71 
5 82 
5 86 
5 91 
5 93 
5 104 
5 107 
5 111 
5 115 
6 7 
6 8 
6 9 
6 10 
6 11 
6 15 
6 17 
6 23 
6 28 
6 36 
6 39 
6 50 
6 52 
6 57 
6 61 
6 72 
6 76 
6 83 
6 84 
6 94 
6 97 
6 105 
6 110 
6 115 
6 116 
7 8 
7 9 
7 10 
7 11 
7 18 
7 20 
7 27 
7 29 
7 35 
7 40 
7 45 
7 51 
7 58 
7 62 
7 73 
7 77 
7 83 
7 84 
7 95 
7 98 
7 103 
7 106 
7 117 
7 118 
8 9 
8 10 
8 11 
8 12 
8 19 
8 30 
8 33 
8 41 
8 43 
8 49 
8 52 
8 62 
8 63 
8 70 
8 74 
8 79 
8 85 
8 94 
8 96 
8 107 
8 108 
8 113 
8 118 
9 10 
9 11 
9 19 
9 20 
9 31 
9 32 
9 40 
9 42 
9 47 
9 53 
9 60 
9 64 
9 72 
9 75 
9 81 
9 86 
9 90 
9 97 
9 100 
9 108 
9 119 
9 121 
10 11 
10 17 
10 21 
10 25 
10 32 
10 38 
10 43 
10 46 
10 54 
10 65 
10 66 
10 75 
10 76 
10 78 
10 87 
10 96 
10 98 
10 106 
10 109 
10 114 
10 120 
11 16 
11 22 
11 31 
11 33 
11 41 
11 44 
11 50 
11 55 
11 65 
11 66 
11 67 
11 77 
11 80 
11 88 
11 92 
11 99 
11 101 
11 110 
11 117 
11 121 
12 13 
12 14 
12 15 
12 16 
12 17 
12 18 
12 19 
12 20 
12 21 
12 22 
12 23 
12 33 
12 34 
12 43 
12 45 
12 49 
12 56 
12 62 
12 67 
12 70 
12 78 
12 79 
12 89 
12 94 
12 100 
12 108 
12 111 
12 113 
13 14 
13 15 
13 16 
13 17 
13 18 
13 19 
13 20 
13 21 
13 22 
13 24 
13 30 
13 35 
13 42 
13 46 
13 55 
13 56 
13 57 
13 68 
13 69 
13 79 
13 82 
13 90 
13 95 
13 101 
13 109 
13 112 
13 116 
14 15 
14 16 
14 17 
14 18 
14 19 
14 20 
14 21 
14 22 
14 25 
14 29 
14 36 
14 37 
14 47 
14 54 
14 58 
14 64 
14 69 
14 74 
14 80 
14 88 
14 91 
14 93 
14 102 
14 105 
14 112 
14 113 
15 16 
15 17 
15 18 
15 19 
15 20 
15 21 
15 22 
15 23 
15 26 
15 36 
15 37 
15 48 
15 52 
15 57 
15 59 
15 70 
15 76 
15 81 
15 84 
15 92 
15 97 
15 103 
15 110 
15 114 
15 115 
16 17 
16 18 
16 19 
16 20 
16 21 
16 22 
16 27 
16 31 
16 38 
16 41 
16 49 
16 50 
16 60 
16 65 
16 67 
16 71 
16 80 
16 82 
16 92 
16 93 
16 101 
16 104 
16 115 
16 117 
17 18 
17 19 
17 20 
17 21 
17 22 
17 25 
17 28 
17 38 
17 39 
17 46 
17 50 
17 61 
17 66 
17 72 
17 75 
17 78 
17 83 
17 94 
17 96 
17 105 
17 106 
17 114 
17 116 
18 19 
18 20 
18 21 
18 22 
18 28 
18 29 
18 34 
18 40 
18 48 
18 51 
18 62 
18 63 
18 71 
18 73 
18 84 
18 87 
18 95 
18 99 
18 102 
18 106 
18 117 
18 119 
19 20 
19 21 
19 22 
19 30 
19 32 
19 40 
19 41 
19 47 
19 52 
19 60 
19 63 
19 72 
19 74 
19 81 
19 85 
19 90 
19 96 
19 100 
19 107 
19 118 
19 121 
20 21 
20 22 
20 27 
20 31 
20 35 
20 42 
20 45 
20 53 
20 58 
20 64 
20 75 
20 77 
20 83 
20 86 
20 97 
20 98 
20 103 
20 108 
20 118 
20 119 
21 22 
21 26 
21 32 
21 43 
21 44 
21 51 
21 54 
21 61 
21 65 
21 68 
21 76 
21 86 
21 87 
21 91 
21 98 
21 107 
21 109 
21 111 
21 120 
22 24 
22 33 
22 39 
22 44 
22 53 
22 55 
22 59 
22 66 
22 73 
22 77 
22 85 
22 88 
22 89 
22 99 
22 104 
22 110 
22 120 
22 121 
23 24 
23 25 
23 26 
23 27 
23 28 
23 29 
23 30 
23 31 
23 32 
23 33 
23 34 
23 36 
23 45 
23 52 
23 56 
23 57 
23 67 
23 76 
23 78 
23 84 
23 89 
23 97 
23 100 
23 110 
23 111 
23 115 
24 25 
24 26 
24 27 
24 28 
24 29 
24 30 
24 31 
24 32 
24 33 
24 35 
24 39 
24 46 
24 53 
24 57 
24 59 
24 68 
24 73 
24 79 
24 85 
24 89 
24 90 
24 101 
24 104 
24 112 
24 120 
25 26 
25 27 
25 28 
25 29 
25 30 
25 31 
25 32 
25 33 
25 36 
25 38 
25 46 
25 47 
25 58 
25 66 
25 69 
25 75 
25 78 
25 80 
25 91 
25 96 
25 102 
25 106 
25 113 
25 114 
26 27 
26 28 
26 29 
26 30 
26 31 
26 32 
26 33 
26 37 
26 44 
26 48 
26 51 
26 59 
26 61 
26 68 
26 70 
26 81 
26 86 
26 91 
26 92 
26 103 
26 107 
26 111 
26 114 
27 28 
27 29 
27 30 
27 31 
27 32 
27 33 
27 35 
27 38 
27 45 
27 49 
27 58 
27 60 
27 71 
27 77 
27 82 
27 83 
27 93 
27 98 
27 103 
27 104 
27 115 
27 118 
28 29 
28 30 
28 31 
28 32 
28 33 
28 34 
28 39 
28 48 
28 50 
28 61 
28 63 
28 71 
28 72 
28 83 
28 87 
28 94 
28 99 
28 102 
28 105 
28 116 
28 119 
29 30 
29 31 
29 32 
29 33 
29 37 
29 40 
29 51 
29 54 
29 62 
29 64 
29 73 
29 74 
29 84 
29 88 
29 93 
29 95 
29 105 
29 106 
29 112 
29 117 
30 31 
30 32 
30 33 
30 41 
30 42 
30 52 
30 55 
30 56 
30 63 
30 69 
30 74 
30 82 
30 85 
30 95 
30 96 
30 107 
30 109 
30 116 
30 118 
31 32 
31 33 
31 41 
31 42 
31 50 
31 53 
31 64 
31 65 
31 67 
31 75 
31 80 
31 86 
31 92 
31 97 
31 101 
31 108 
31 117 
31 119 
32 33 
32 40 
32 43 
32 47 
32 54 
32 60 
32 65 
32 72 
32 76 
32 81 
32 87 
32 90 
32 98 
32 100 
32 109 
32 120 
32 121 
33 43 
33 44 
33 49 
33 55 
33 62 
33 66 
33 70 
33 77 
33 79 
33 88 
33 94 
33 99 
33 108 
33 110 
33 113 
33 121 
34 35 
34 36 
34 37 
34 38 
34 39 
34 40 
34 41 
34 42 
34 43 
34 44 
34 45 
34 48 
34 56 
34 63 
34 67 
34 71 
34 78 
34 87 
34 89 
34 99 
34 100 
34 102 
34 111 
34 119 
35 36 
35 37 
35 38 
35 39 
35 40 
35 41 
35 42 
35 43 
35 44 
35 45 
35 46 
35 57 
35 58 
35 68 
35 77 
35 79 
35 83 
35 90 
35 98 
35 101 
35 103 
35 112 
35 118 
36 37 
36 38 
36 39 
36 40 
36 41 
36 42 
36 43 
36 44 
36 47 
36 52 
36 57 
36 58 
36 69 
36 76 
36 80 
36 84 
36 91 
36 97 
36 102 
36 110 
36 113 
36 115 
37 38 
37 39 
37 40 
37 41 
37 42 
37 43 
37 44 
37 48 
37 54 
37 59 
37 64 
37 70 
37 74 
37 81 
37 88 
37 92 
37 93 
37 103 
37 105 
37 112 
37 114 
38 39 
38 40 
38 41 
38 42 
38 43 
38 44 
38 46 
38 49 
38 60 
38 66 
38 71 
38 75 
38 78 
38 82 
38 93 
38 96 
38 104 
38 106 
38 114 
38 115 
39 40 
39 41 
39 42 
39 43 
39 44 
39 50 
39 53 
39 59 
39 61 
39 72 
39 73 
39 83 
39 85 
39 89 
39 94 
39 104 
39 105 
39 116 
39 120 
40 41 
40 42 
40 43 
40 44 
40 47 
40 51 
40 60 
40 62 
40 72 
40 73 
40 81 
40 84 
40 90 
40 95 
40 100 
40 106 
40 117 
40 121 
41 42 
41 43 
41 44 
41 50 
41 52 
41 63 
41 65 
41 67 
41 74 
41 80 
41 85 
41 92 
41 96 
41 101 
41 107 
41 117 
41 118 
42 43 
42 44 
42 53 
42 55 
42 56 
42 64 
42 69 
42 75 
42 82 
42 86 
42 95 
42 97 
42 108 
42 109 
42 116 
42 119 
43 44 
43 49 
43 54 
43 62 
43 65 
43 70 
43 76 
43 79 
43 87 
43 94 
43 98 
43 108 
43 109 
43 113 
43 120 
44 51 
44 55 
44 61 
44 66 
44 68 
44 77 
44 86 
44 88 
44 91 
44 99 
44 107 
44 110 
44 111 
44 121 
45 46 
45 47 
45 48 
45 49 
45 50 
45 51 
45 52 
45 53 
45 54 
45 55 
45 56 
45 58 
45 67 
45 77 
45 78 
45 83 
45 89 
45 98 
45 100 
45 103 
45 111 
45 118 
46 47 
46 48 
46 49 
46 50 
46 51 
46 52 
46 53 
46 54 
46 55 
46 57 
46 66 
46 68 
46 75 
46 78 
46 79 
46 90 
46 96 
46 101 
46 106 
46 112 
46 114 
47 48 
47 49 
47 50 
47 51 
47 52 
47 53 
47 54 
47 55 
47 58 
47 60 
47 69 
47 72 
47 80 
47 81 
47 90 
47 91 
47 100 
47 102 
47 113 
47 121 
48 49 
48 50 
48 51 
48 52 
48 53 
48 54 
48 55 
48 59 
48 63 
48 70 
48 71 
48 81 
48 87 
48 92 
48 99 
48 102 
48 103 
48 114 
48 119 
49 50 
49 51 
49 52 
49 53 
49 54 
49 55 
49 60 
49 62 
49 70 
49 71 
49 79 
49 82 
49 93 
49 94 
49 104 
49 108 
49 113 
49 115 
50 51 
50 52 
50 53 
50 54 
50 55 
50 61 
50 65 
50 67 
50 72 
50 80 
50 83 
50 92 
50 94 
50 101 
50 105 
50 116 
50 117 
51 52 
51 53 
51 54 
51 55 
51 61 
51 62 
51 68 
51 73 
51 84 
51 86 
51 91 
51 95 
51 106 
51 107 
51 111 
51 117 
52 53 
52 54 
52 55 
52 57 
52 63 
52 74 
52 76 
52 84 
52 85 
52 96 
52 97 
52 107 
52 110 
52 115 
52 118 
53 54 
53 55 
53 59 
53 64 
53 73 
53 75 
53 85 
53 86 
53 89 
53 97 
53 104 
53 108 
53 119 
53 120 
54 55 
54 64 
54 65 
54 74 
54 76 
54 87 
54 88 
54 93 
54 98 
54 105 
54 109 
54 112 
54 120 
55 56 
55 66 
55 69 
55 77 
55 82 
55 88 
55 95 
55 99 
55 109 
55 110 
55 116 
55 121 
56 57 
56 58 
56 59 
56 60 
56 61 
56 62 
56 63 
56 64 
56 65 
56 66 
56 67 
56 69 
56 78 
56 82 
56 89 
56 95 
56 100 
56 109 
56 111 
56 116 
57 58 
57 59 
57 60 
57 61 
57 62 
57 63 
57 64 
57 65 
57 66 
57 68 
57 76 
57 79 
57 84 
57 90 
57 97 
57 101 
57 110 
57 112 
57 115 
58 59 
58 60 
58 61 
58 62 
58 63 
58 64 
58 65 
58 66 
58 69 
58 77 
58 80 
58 83 
58 91 
58 98 
58 102 
58 103 
58 113 
58 118 
59 60 
59 61 
59 62 
59 63 
59 64 
59 65 
59 66 
59 70 
59 73 
59 81 
59 85 
59 89 
59 92 
59 103 
59 104 
59 114 
59 120 
60 61 
60 62 
60 63 
60 64 
60 65 
60 66 
60 71 
60 72 
60 81 
60 82 
60 90 
60 93 
60 100 
60 104 
60 115 
60 121 
61 62 
61 63 
61 64 
61 65 
61 66 
61 68 
61 72 
61 83 
61 86 
61 91 
61 94 
61 105 
61 107 
61 111 
61 116 
62 63 
62 64 
62 65 
62 66 
62 70 
62 73 
62 79 
62 84 
62 94 
62 95 
62 106 
62 108 
62 113 
62 117 
63 64 
63 65 
63 66 
63 71 
63 74 
63 85 
63 87 
63 96 
63 99 
63 102 
63 107 
63 118 
63 119 
64 65 
64 66 
64 74 
64 75 
64 86 
64 88 
64 93 
64 97 
64 105 
64 108 
64 112 
64 119 
65 66 
65 67 
65 76 
65 80 
65 87 
65 92 
65 98 
65 101 
65 109 
65 117 
65 120 
66 75 
66 77 
66 78 
66 88 
66 96 
66 99 
66 106 
66 110 
66 114 
66 121 
67 68 
67 69 
67 70 
67 71 
67 72 
67 73 
67 74 
67 75 
67 76 
67 77 
67 78 
67 80 
67 89 
67 92 
67 100 
67 101 
67 111 
67 117 
68 69 
68 70 
68 71 
68 72 
68 73 
68 74 
68 75 
68 76 
68 77 
68 79 
68 86 
68 90 
68 91 
68 101 
68 107 
68 111 
68 112 
69 70 
69 71 
69 72 
69 73 
69 74 
69 75 
69 76 
69 77 
69 80 
69 82 
69 91 
69 95 
69 102 
69 109 
69 113 
69 116 
70 71 
70 72 
70 73 
70 74 
70 75 
70 76 
70 77 
70 79 
70 81 
70 92 
70 94 
70 103 
70 108 
70 113 
70 114 
71 72 
71 73 
71 74 
71 75 
71 76 
71 77 
71 82 
71 87 
71 93 
71 99 
71 102 
71 104 
71 115 
71 119 
72 73 
72 74 
72 75 
72 76 
72 77 
72 81 
72 83 
72 90 
72 94 
72 100 
72 105 
72 116 
72 121 
73 74 
73 75 
73 76 
73 77 
73 84 
73 85 
73 89 
73 95 
73 104 
73 106 
73 117 
73 120 
74 75 
74 76 
74 77 
74 85 
74 88 
74 93 
74 96 
74 105 
74 107 
74 112 
74 118 
75 76 
75 77 
75 78 
75 86 
75 96 
75 97 
75 106 
75 108 
75 114 
75 119 
76 77 
76 84 
76 87 
76 97 
76 98 
76 109 
76 110 
76 115 
76 120 
77 83 
77 88 
77 98 
77 99 
77 103 
77 110 
77 118 
77 121 
78 79 
78 80 
78 81 
78 82 
78 83 
78 84 
78 85 
78 86 
78 87 
78 88 
78 89 
78 96 
78 100 
78 106 
78 111 
78 114 
79 80 
79 81 
79 82 
79 83 
79 84 
79 85 
79 86 
79 87 
79 88 
79 90 
79 94 
79 101 
79 108 
79 112 
79 113 
80 81 
80 82 
80 83 
80 84 
80 85 
80 86 
80 87 
80 88 
80 91 
80 92 
80 101 
80 102 
80 113 
80 117 
81 82 
81 83 
81 84 
81 85 
81 86 
81 87 
81 88 
81 90 
81 92 
81 100 
81 103 
81 114 
81 121 
82 83 
82 84 
82 85 
82 86 
82 87 
82 88 
82 93 
82 95 
82 104 
82 109 
82 115 
82 116 
83 84 
83 85 
83 86 
83 87 
83 88 
83 94 
83 98 
83 103 
83 105 
83 116 
83 118 
84 85 
84 86 
84 87 
84 88 
84 95 
84 97 
84 106 
84 110 
84 115 
84 117 
85 86 
85 87 
85 88 
85 89 
85 96 
85 104 
85 107 
85 118 
85 120 
86 87 
86 88 
86 91 
86 97 
86 107 
86 108 
86 111 
86 119 
87 88 
87 98 
87 99 
87 102 
87 109 
87 119 
87 120 
88 93 
88 99 
88 105 
88 110 
88 112 
88 121 
89 90 
89 91 
89 92 
89 93 
89 94 
89 95 
89 96 
89 97 
89 98 
89 99 
89 100 
89 104 
89 111 
89 120 
90 91 
90 92 
90 93 
90 94 
90 95 
90 96 
90 97 
90 98 
90 99 
90 100 
90 101 
90 112 
90 121 
91 92 
91 93 
91 94 
91 95 
91 96 
91 97 
91 98 
91 99 
91 102 
91 107 
91 111 
91 113 
92 93 
92 94 
92 95 
92 96 
92 97 
92 98 
92 99 
92 101 
92 103 
92 114 
92 117 
93 94 
93 95 
93 96 
93 97 
93 98 
93 99 
93 104 
93 105 
93 112 
93 115 
94 95 
94 96 
94 97 
94 98 
94 99 
94 105 
94 108 
94 113 
94 116 
95 96 
95 97 
95 98 
95 99 
95 106 
95 109 
95 116 
95 117 
96 97 
96 98 
96 99 
96 106 
96 107 
96 114 
96 118 
97 98 
97 99 
97 108 
97 110 
97 115 
97 119 
98 99 
98 103 
98 109 
98 118 
98 120 
99 102 
99 110 
99 119 
99 121 
100 101 
100 102 
100 103 
100 104 
100 105 
100 106 
100 107 
100 108 
100 109 
100 110 
100 111 
100 121 
101 102 
101 103 
101 104 
101 105 
101 106 
101 107 
101 108 
101 109 
101 110 
101 112 
101 117 
102 103 
102 104 
102 105 
102 106 
102 107 
102 108 
102 109 
102 110 
102 113 
102 119 
103 104 
103 105 
103 106 
103 107 
103 108 
103 109 
103 110 
103 114 
103 118 
104 105 
104 106 
104 107 
104 108 
104 109 
104 110 
104 115 
104 120 
105 106 
105 107 
105 108 
105 109 
105 110 
105 112 
105 116 
106 107 
106 108 
106 109 
106 110 
106 114 
106 117 
107 108 
107 109 
107 110 
107 111 
107 118 
108 109 
108 110 
108 113 
108 119 
109 110 
109 116 
109 120 
110 115 
110 121 
111 112 
111 113 
111 114 
111 115 
111 116 
111 117 
111 118 
111 119 
111 120 
111 121 
112 113 
112 114 
112 115 
112 116 
112 117 
112 118 
112 119 
112 120 
112 121 
113 114 
113 115 
113 116 
113 117 
113 118 
113 119 
113 120 
113 121 
114 115 
114 116 
114 117 
114 118 
114 119 
114 120 
114 121 
115 116 
115 117 
115 118 
115 119 
115 120 
115 121 
116 117 
116 118 
116 119 
116 120 
116 121 
117 118 
117 119 
117 120 
117 121 
118 119 
118 120 
118 121 
119 120 
119 121 
120 121 
